RAW/CMTT/fspd-long/CMT14T.vrp_seed-4.out
826.7733322	2.148	193.884
