RAW/CMTT/fspd-long/CMT14T.vrp_seed-4.sol
Route #1: 90 87 86 83 82 84 85 88 89 91
Route #2: 69 66 68 64 61 72 74 62 65 67
Route #3: 5 3 7 8 11 9 6 4 1 75
Route #4: 98 96 95 94 92 93 97 100 99 2
Route #5: 23 13 17 18 19 15 16 14 12 10
Route #6: 20 24 25 27 29 30 28 26 22 21
Route #7: 57 55 54 53 56 58 60 59 40 41
Route #8: 43 42 44 45 46 48 51 52 49 47
Route #9: 32 33 34 36 39 38 37 35 31 50
Route #10: 81 78 76 71 70 73 77 79 80 63
Cost 826.773332